
Gurobi 6.5.2 (linux64) logging started Wed Mar 15 12:47:28 2017


Gurobi 6.5.2 (linux64) logging started Wed Mar 15 12:47:28 2017

Optimize a model with 101 rows, 418 columns and 1173 nonzeros
Coefficient statistics:
  Matrix range    [1e+00, 2e+00]
  Objective range [1e+00, 1e+02]
  Bounds range    [1e+00, 1e+00]
  RHS range       [1e+00, 1e+00]
Presolve removed 33 rows and 1 columns
Presolve time: 0.00s
Presolved: 68 rows, 417 columns, 906 nonzeros
Variable types: 0 continuous, 417 integer (417 binary)

Root relaxation: objective 6.120000e+02, 55 iterations, 0.00 seconds

    Nodes    |    Current Node    |     Objective Bounds      |     Work
 Expl Unexpl |  Obj  Depth IntInf | Incumbent    BestBd   Gap | It/Node Time

     0     0  612.00000    0   20          -  612.00000      -     -    0s
H    0     0                    1027.0000000  612.00000  40.4%     -    0s
H    0     0                     924.0000000  612.00000  33.8%     -    0s
     0     0  670.62500    0   23  924.00000  670.62500  27.4%     -    0s
H    0     0                     893.0000000  670.62500  24.9%     -    0s
     0     0  671.62500    0   33  893.00000  671.62500  24.8%     -    0s
     0     0  689.83333    0   16  893.00000  689.83333  22.8%     -    0s
H    0     0                     830.0000000  689.83333  16.9%     -    0s
     0     0  692.81915    0   43  830.00000  692.81915  16.5%     -    0s
     0     0  692.81915    0   43  830.00000  692.81915  16.5%     -    0s
H    0     2                     736.0000000  692.81915  5.87%     -    0s
     0     2  692.81915    0   43  736.00000  692.81915  5.87%     -    0s
*   18     0              11     723.0000000  702.83333  2.79%   5.6    0s
*  237    23              17     722.0000000  705.50000  2.29%   3.5    0s
*  505    64              18     721.0000000  708.00000  1.80%   3.0    0s
*  524    79              12     720.0000000  708.00000  1.67%   3.0    0s
*  539    75              15     719.0000000  708.00000  1.53%   3.0    0s
*  840    76              15     718.0000000  708.90909  1.27%   2.8    0s

Cutting planes:
  Gomory: 16
  Cover: 44
  MIR: 3
  Zero half: 4
  Lazy constraints: 152

Explored 1379 nodes (3720 simplex iterations) in 0.18 seconds
Thread count was 8 (of 8 available processors)

Optimal solution found (tolerance 1.00e-04)
Best objective 7.180000000000e+02, best bound 7.180000000000e+02, gap 0.0%
